(declare-const term_to_project_onto1 Real)
(declare-const term_to_project_onto0 Real)
(declare-const tmp Int)
(declare-const term_to_project_onto Real)
(assert (exists
         ((|tmp'?1| Int) (|j'?2| Int) (phi_k?3 Int) (|k'?4| Int) (K?5 Int)
            (|k'?6| Int) (havoc?7 Int) (j?8 Int) (i?9 Int) (k?10 Int)
            (n?11 Int))
         (and (<= (- j?8) 0) (<= (- i?9) 0) (<= (+ (- n?11) 1) 0)
                (<= (+ (- n?11) j?8 1) 0)
                (or (and (or (<= (+ havoc?7 1) 0) (<= (+ (- havoc?7) 1) 0))
                           (= (+ (- |k'?4|) K?5 j?8) 0)
                           (or (and (= K?5 0) (= (+ (- |k'?4|) j?8) 0))
                                 (and (<= (+ (- K?5) 1) 0) (<= (- i?9) 0)
                                        (<= (+ (* 2 i?9) (- j?8)) 0)
                                        (<= (+ (- n?11) j?8 1) 0)
                                        (<= (+ (- |k'?4|) (* 2 i?9) 1) 0)
                                        (<= (- i?9) 0)
                                        (<= (+ |k'?4| (- n?11)) 0)))
                           (<= (- K?5) 0) (<= (- i?9) 0) (<= (- |k'?4|) 0)
                           (<= (+ (- n?11) 1) 0) (<= (+ (- |k'?4|) n?11) 0)
                           (= (+ (- phi_k?3) |k'?4|) 0))
                      (and (= havoc?7 0) (<= (+ (- k?10) n?11) 0)
                             (<= (+ k?10 (- n?11)) 0)
                             (= (+ k?10 (- phi_k?3)) 0)))
                (= (+ |tmp'?1| (- havoc?7)) 0) (= (+ |k'?6| (- phi_k?3)) 0)
                (= (+ |j'?2| (- j?8) -1) 0)
                (= term_to_project_onto1 (+ |j'?2| (- j?8)))
                (= term_to_project_onto0 (+ |k'?6| (- k?10)))
                (= term_to_project_onto (+ |tmp'?1| (- tmp))))))
(check-sat)
